p cnf 129 433
-4 -2 0
-4 -3 0
2 3 4 0
5 -1 0
5 4 0
1 -4 -5 0
-5 -6 0
5 -6 0
-6 7 -8 0
6 -7 -8 0
-6 -7 8 0
6 7 8 0
-10 5 0
-10 9 0
-5 -9 10 0
-10 -11 0
10 -11 0
-12 8 0
-12 -11 0
-8 11 12 0
7 13 -14 0
-7 -13 -14 0
7 -13 14 0
-7 13 14 0
15 -12 0
15 -14 0
12 14 -15 0
11 17 -18 0
-11 -17 -18 0
11 -17 18 0
-11 17 18 0
18 19 -20 0
-18 -19 -20 0
18 -19 20 0
-18 19 20 0
-1 20 -21 0
1 -20 -21 0
-1 -20 21 0
1 20 21 0
23 -10 0
23 22 0
10 -22 -23 0
-21 23 -24 0
21 -23 -24 0
-21 -23 24 0
21 23 24 0
-25 -16 0
-25 24 0
16 -24 25 0
27 -26 0
27 -10 0
26 10 -27 0
20 27 -28 0
-20 -27 -28 0
20 -27 28 0
-20 27 28 0
-31 -29 0
-31 30 0
29 -30 31 0
-32 31 0
-32 18 0
-31 -18 32 0
33 -17 0
33 32 0
17 -32 -33 0
-28 -33 -34 0
28 33 -34 0
-28 33 34 0
28 -33 34 0
-36 -31 0
-36 35 0
31 -35 36 0
-37 17 0
-37 36 0
-17 -36 37 0
38 34 0
38 37 0
-34 -37 -38 0
-25 38 -39 0
25 -38 -39 0
-25 -38 39 0
25 38 39 0
15 39 -40 0
-15 -39 -40 0
15 -39 40 0
-15 39 40 0
35 29 -41 0
-35 -29 -41 0
35 -29 41 0
-35 29 41 0
42 41 0
42 -7 0
-41 7 -42 0
43 12 0
43 -42 0
-12 42 -43 0
40 -43 -44 0
-40 43 -44 0
40 43 44 0
-40 -43 44 0
27 -30 -45 0
-27 30 -45 0
27 30 45 0
-27 -30 45 0
-46 -18 0
-46 18 0
47 46 0
47 24 0
-46 -24 -47 0
-48 -45 0
-48 -47 0
45 47 48 0
-49 9 0
-49 13 0
-9 -13 49 0
50 -49 0
50 -8 0
49 8 -50 0
-50 -2 -51 0
50 2 -51 0
-50 2 51 0
50 -2 51 0
-52 -7 0
-52 5 0
7 -5 52 0
53 2 0
53 29 0
-2 -29 -53 0
-54 53 0
-54 22 0
-53 -22 54 0
52 54 -55 0
-52 -54 -55 0
52 -54 55 0
-52 54 55 0
-56 -22 0
-56 55 0
22 -55 56 0
57 -51 0
57 56 0
51 -56 -57 0
-48 57 -58 0
48 -57 -58 0
-48 -57 58 0
48 57 58 0
18 31 -59 0
-18 -31 -59 0
18 -31 59 0
-18 31 59 0
60 18 0
60 -29 0
-18 29 -60 0
61 30 0
61 -60 0
-30 60 -61 0
-62 -59 0
-62 -61 0
59 61 62 0
-62 19 -63 0
62 -19 -63 0
-62 -19 63 0
62 19 63 0
-32 -42 -64 0
32 42 -64 0
-32 42 64 0
32 -42 64 0
-63 -64 -65 0
63 64 -65 0
-63 64 65 0
63 -64 65 0
16 30 -66 0
-16 -30 -66 0
16 -30 66 0
-16 30 66 0
-26 36 -67 0
26 -36 -67 0
-26 -36 67 0
26 36 67 0
68 -19 0
68 17 0
19 -17 -68 0
69 -46 0
69 68 0
46 -68 -69 0
-70 67 0
-70 -69 0
-67 69 70 0
71 -24 0
71 54 0
24 -54 -71 0
-73 18 0
-73 -72 0
-18 72 73 0
-74 61 0
-74 73 0
-61 -73 74 0
-74 -7 -75 0
74 7 -75 0
-74 7 75 0
74 -7 75 0
-76 -75 0
-76 19 0
75 -19 76 0
77 -71 0
77 76 0
71 -76 -77 0
-70 -77 -78 0
70 77 -78 0
-70 77 78 0
70 -77 78 0
11 -60 -79 0
-11 60 -79 0
11 60 79 0
-11 -60 79 0
80 -78 0
80 -79 0
78 79 -80 0
-66 -80 -81 0
66 80 -81 0
-66 80 81 0
66 -80 81 0
82 -65 0
82 -81 0
65 81 -82 0
-83 58 0
-83 -82 0
-58 82 83 0
-84 -44 0
-84 83 0
44 -83 84 0
85 2 0
85 -6 0
-2 6 -85 0
86 -85 0
86 35 0
85 -35 -86 0
-87 85 0
-87 -4 0
-85 4 87 0
5 -4 -88 0
-5 4 -88 0
5 4 88 0
-5 -4 88 0
-89 -87 0
-89 -88 0
87 88 89 0
-90 23 0
-90 22 0
-23 -22 90 0
90 -23 -91 0
-90 23 -91 0
90 23 91 0
-90 -23 91 0
-92 6 0
-92 20 0
-6 -20 92 0
-93 -49 0
-93 -1 0
49 1 93 0
94 -42 0
94 -93 0
42 93 -94 0
-95 -92 0
-95 -94 0
92 94 95 0
-93 -29 -96 0
93 29 -96 0
-93 29 96 0
93 -29 96 0
97 -75 0
97 13 0
75 -13 -97 0
-98 -96 0
-98 -97 0
96 97 98 0
-62 92 -99 0
62 -92 -99 0
-62 -92 99 0
62 92 99 0
73 52 -100 0
-73 -52 -100 0
73 -52 100 0
-73 52 100 0
101 -100 0
101 -60 0
100 60 -101 0
-102 -99 0
-102 101 0
99 -101 102 0
-103 98 0
-103 -102 0
-98 102 103 0
104 -95 0
104 -103 0
95 103 -104 0
-105 -18 0
-105 -11 0
18 11 105 0
106 105 0
106 92 0
-105 -92 -106 0
107 -12 0
107 106 0
12 -106 -107 0
108 -104 0
108 107 0
104 -107 -108 0
91 -108 -109 0
-91 108 -109 0
91 108 109 0
-91 -108 109 0
-110 31 0
-110 7 0
-31 -7 110 0
110 41 -111 0
-110 -41 -111 0
110 -41 111 0
-110 41 111 0
18 -59 -112 0
-18 59 -112 0
18 59 112 0
-18 -59 112 0
-29 7 -113 0
29 -7 -113 0
-29 -7 113 0
29 7 113 0
-114 112 0
-114 -113 0
-112 113 114 0
115 -111 0
115 114 0
111 -114 -115 0
116 -54 0
116 -2 0
54 2 -116 0
90 116 -117 0
-90 -116 -117 0
90 -116 117 0
-90 116 117 0
115 117 -118 0
-115 -117 -118 0
115 -117 118 0
-115 117 118 0
-119 -109 0
-119 -118 0
109 118 119 0
100 3 -120 0
-100 -3 -120 0
100 -3 120 0
-100 3 120 0
-121 -4 0
-121 7 0
4 -7 121 0
123 -122 0
123 -24 0
122 24 -123 0
124 121 0
124 123 0
-121 -123 -124 0
125 -120 0
125 124 0
120 -124 -125 0
-126 -119 0
-126 -125 0
119 125 126 0
89 126 -127 0
-89 -126 -127 0
89 -126 127 0
-89 126 127 0
-86 127 -128 0
86 -127 -128 0
-86 -127 128 0
86 127 128 0
129 84 0
129 -128 0
-84 128 -129 0
120 25 68 -21 -86 117 0
-30 -67 -15 70 54 0
-60 -110 -109 -47 97 -36 0
36 84 -81 -90 0
-90 -87 0
-44 59 -19 0
-67 -66 -11 37 0
-61 -116 38 -124 0
85 78 -35 34 117 0
-118 -32 61 117 -125 -59 0
52 -51 0
101 -60 -96 119 -97 0
87 -108 -94 -98 80 0
79 -119 0
-80 50 -86 28 -25 0
33 -112 0
-43 -2 -17 0
87 67 25 -59 -1 0
11 -62 -78 109 10 -91 0
-85 -115 -94 -23 11 0
1 -75 122 -12 125 35 0
-64 55 32 -48 -31 0
-107 -56 36 -95 0
-56 -114 -69 74 0
64 -51 0
-55 -1 0
-75 129 0
50 89 118 41 16 -117 0
31 57 -123 0
123 78 128 125 -85 0
92 37 111 -79 0
4 29 -12 -2 124 95 0
74 50 -77 -47 0
-95 83 0
49 -59 -42 -57 0
-128 118 85 -17 30 0
-106 9 -43 8 62 0
-71 49 -129 -85 0
-26 14 67 0
87 -92 9 89 100 53 0
17 29 119 57 0
-45 37 95 41 52 -18 0
78 -23 0
39 -28 0
33 -20 -63 0
-71 -36 0
-79 -76 112 18 63 3 0
-73 87 53 -83 129 -52 0
-102 -36 0
1 110 58 120 3 0
-50 95 -41 -115 56 0
18 -49 -11 5 -63 0
-29 35 34 0
-46 -67 7 -81 -50 0
100 34 109 -64 30 0
-23 37 28 -102 0
129 0
